proyfinal/src/viki/013/experimentInOfficeAgust.take6.output/64e9d8c1-b382-4512-a9a9-6ba7e090e004.als.out
Reading from standard input... Use '--help' for help.
============================[ Problem Statistics ]=============================
|                                                                             |
|  Number of variables:         87638                                         |
|  Number of clauses:          161767                                         |
|  Parse time:                   0.03 s                                       |
|                                                                             |
============================[ Search Statistics ]==============================
| Conflicts |          ORIGINAL         |          LEARNT          | Progress |
|           |    Vars  Clauses Literals |    Limit  Clauses Lit/Cl |          |
===============================================================================
|       100 |   62388   105166   262798 |    38560      100     17 | 28.812 % |
|       250 |   62388   105166   262798 |    42416      250     25 | 28.812 % |
|       475 |   62380   105124   262696 |    46658      474     38 | 28.821 % |
|       812 |   62380   105124   262696 |    51324      811     41 | 28.821 % |
|      1318 |   62379   105080   262606 |    56456     1313     45 | 28.822 % |
|      2077 |   62361   105010   262439 |    62102     1588     52 | 28.843 % |
|      3216 |   62361   105010   262439 |    68312     2727     80 | 28.843 % |
|      4924 |   49282    67224   169166 |    75144     4231     67 | 43.766 % |
|      7486 |   49096    66797   168116 |    82658     6238     62 | 43.979 % |
|     11330 |   48475    64013   161533 |    90924     9339     56 | 44.687 % |
===============================================================================
restarts              : 53
conflicts             : 12396          (8414 /sec)
decisions             : 39913          (0.00 % random) (27091 /sec)
propagations          : 16868489       (11449413 /sec)
conflict literals     : 632536         (47.31 % deleted)
Memory used           : 29.37 MB
CPU time              : 1.47331 s

UNSATISFIABLE
